p cnf 34 89
a 18 12 0
e 1 2 3 4 5 6 7 8 9 10 11 13 14 15 16 17 19 20 21 22 23 24 25 26 27 28 29 30 31 32 33 34 0
3 1 0
3 -2 0
-1 2 -3 0
5 -3 0
5 -4 0
3 4 -5 0
-7 1 0
-7 -6 0
-1 6 7 0
4 -6 -8 0
-4 6 -8 0
4 6 8 0
-4 -6 8 0
-9 7 0
-9 8 0
-7 -8 9 0
-10 4 0
-10 6 0
-4 -6 10 0
12 -10 0
12 11 0
10 -11 -12 0
13 9 0
13 -12 0
-9 12 -13 0
14 -5 0
14 13 0
5 -13 -14 0
16 -6 0
16 15 0
6 -15 -16 0
17 10 0
17 16 0
-10 -16 -17 0
-18 19 -20 0
18 -19 -20 0
-18 -19 20 0
18 19 20 0
-20 -15 -21 0
20 15 -21 0
-20 15 21 0
20 -15 21 0
1 -15 -22 0
-1 15 -22 0
1 15 22 0
-1 -15 22 0
-16 22 -23 0
16 -22 -23 0
-16 -22 23 0
16 22 23 0
20 19 -24 0
-20 -19 -24 0
20 -19 24 0
-20 19 24 0
-25 23 0
-25 -24 0
-23 24 25 0
26 21 0
26 25 0
-21 -25 -26 0
17 -26 -27 0
-17 26 -27 0
17 26 27 0
-17 -26 27 0
28 -29 -30 0
-28 29 -30 0
28 29 30 0
-28 -29 30 0
-31 16 0
-31 2 0
-16 -2 31 0
32 30 0
32 31 0
-30 -31 -32 0
-33 27 0
-33 32 0
-27 -32 33 0
34 14 0
34 33 0
-14 -33 -34 0
32 19 6 -14 -16 0
4 23 -13 -24 29 -9 -32 22 0
-2 -10 34 33 6 15 -24 0
33 -1 -18 5 -27 -3 0
33 -17 -29 -10 26 -9 0
14 -13 -25 21 0
-13 19 32 31 6 0
-28 -15 27 26 1 0
34 0
